 vasp.5.4.4.18Apr17-6-g9f103f2a35 (build May 20 2019 14:42:51) complex

 executed on             LinuxIFC date 2021.06.28  16:11:38

 INCAR:
 POTCAR:    PAW_PBE V_pv 07Sep2000
 POTCAR:    PAW_PBE S 06Sep2000
 POTCAR:    PAW_PBE V_pv 07Sep2000
   VRHFIN =V: p6 d4 s1

   TITEL  = PAW_PBE V_pv 07Sep2000
   POMASS =   50.941; ZVAL   =   11.000    mass and valenz
   ENMAX  =  263.673; ENMIN  =  197.755 eV

 POTCAR:    PAW_PBE S 06Sep2000
   VRHFIN =S : s2p4

   TITEL  = PAW_PBE S 06Sep2000
   POMASS =   32.066; ZVAL   =    6.000    mass and valenz
   ENMAX  =  258.689; ENMIN  =  194.016 eV

  PAW_PBE V_pv 07Sep2000                :
  PAW_PBE S 06Sep2000                   :

 POSCAR: Primitive Cell, D = 3.1212
  positions in direct lattice
  velocities in cartesian coordinates
 exchange correlation table for  LEXCH =        8
   RHO(1)=    0.500       N(1)  =     2000
   RHO(2)=  100.500       N(2)  =     4000

 ion  position               nearest neighbor table
   1  0.000  0.000  0.051-   3 2.35   4 2.35   4 2.35   3 2.35   3 2.35   4 2.35
   2  0.000  0.000  0.260-   5 2.35   5 2.35   5 2.35   6 2.35   6 2.35   6 2.35
   3  0.667  0.333  0.000-   1 2.35   1 2.35   1 2.35
   4  0.333  0.667  0.101-   1 2.35   1 2.35   1 2.35
   5  0.667  0.333  0.209-   2 2.35   2 2.35   2 2.35
   6  0.333  0.667  0.310-   2 2.35   2 2.35   2 2.35

  LATTYP: Found a hexagonal cell.
 ALAT       =     3.1882836819
 C/A-ratio  =     9.0929708595

  Lattice vectors:

 A1 = (   3.1882836819,   0.0000000000,   0.0000000000)
 A2 = (  -1.5941418409,   2.7611346630,   0.0000000000)
 A3 = (   0.0000000000,   0.0000000000,  28.9909706116)

Analysis of symmetry for initial positions (statically):
 Subroutine PRICEL returns:
 Original cell was already a primitive cell.

 Routine SETGRP: Setting up the symmetry group for a
 hexagonal supercell.

 Subroutine GETGRP returns: Found 12 space group operations
 (whereof  6 operations were pure point group operations)
 out of a pool of 24 trial point group operations.

The static configuration has the point symmetry C_3v.
 The point group associated with its full space group is D_3d.

Analysis of symmetry for dynamics (positions and initial velocities):
 Subroutine PRICEL returns:
 Original cell was already a primitive cell.

[...]

The dynamic configuration has the point symmetry C_3v.
 The point group associated with its full space group is D_3d.

Analysis of structural, dynamic, and magnetic symmetry:
 Subroutine PRICEL returns:
 Original cell was already a primitive cell.

 Routine SETGRP: Setting up the symmetry group for a
 hexagonal supercell.

 Subroutine GETGRP returns: Found 12 space group operations
 (whereof  6 operations were pure point group operations)
 out of a pool of 24 trial point group operations.

The magnetic configuration has the point symmetry C_3v.
 The point group associated with its full space group is D_3d.

 Subroutine INISYM returns: Found 12 space group operations
 (whereof  6 operations are pure point group operations),
 and found     1 'primitive' translations

 KPOINTS: !Auto mesh

Automatic generation of k-mesh.
Space group operators:
 irot       det(A)        alpha          n_x          n_y          n_z        tau_x        tau_y        tau_z
    1     1.000000     0.000000     1.000000     0.000000     0.000000     0.000000     0.000000     0.000000
    2     1.000000   120.000000     0.000000     0.000000    -1.000000     0.000000     0.000000     0.000000
    3     1.000000   120.000000     0.000000     0.000000     1.000000     0.000000     0.000000     0.000000
    4    -1.000000   180.000000     1.000000    -0.000000     0.000000     0.000000     0.000000     0.000000
    5    -1.000000   180.000000     0.500000    -0.866025     0.000000     0.000000     0.000000     0.000000
    6    -1.000000   180.000000    -0.500000    -0.866025     0.000000     0.000000     0.000000     0.000000
    7    -1.000000     0.000000     1.000000     0.000000     0.000000     0.000000     0.000000     0.310130
    8    -1.000000   120.000000     0.000000     0.000000    -1.000000     0.000000     0.000000     0.310130
    9    -1.000000   120.000000     0.000000     0.000000     1.000000     0.000000     0.000000     0.310130
   10     1.000000   180.000000     1.000000    -0.000000     0.000000     0.000000     0.000000     0.310130
   11     1.000000   180.000000     0.500000    -0.866025     0.000000     0.000000     0.000000     0.310130
   12     1.000000   180.000000    -0.500000    -0.866025     0.000000     0.000000     0.000000     0.310130

 Subroutine IBZKPT returns following result:

 Found     65 irreducible k-points:

 Following reciprocal coordinates:
            Coordinates               Weight
  0.000000  0.000000  0.000000      1.000000
  0.040000 -0.000000  0.000000      6.000000
  0.080000 -0.000000  0.000000      6.000000
  0.120000  0.000000  0.000000      6.000000
  0.160000 -0.000000  0.000000      6.000000
  0.200000 -0.000000  0.000000      6.000000
  0.240000  0.000000  0.000000      6.000000
  0.280000 -0.000000  0.000000      6.000000
  0.320000 -0.000000  0.000000      6.000000
  0.360000 -0.000000  0.000000      6.000000
  0.400000 -0.000000  0.000000      6.000000
  0.440000 -0.000000  0.000000      6.000000
  0.480000  0.000000  0.000000      6.000000
  0.040000  0.040000  0.000000      6.000000
  0.080000  0.040000  0.000000     12.000000
  0.120000  0.040000  0.000000     12.000000
  0.160000  0.040000  0.000000     12.000000
  0.200000  0.040000  0.000000     12.000000
  0.240000  0.040000  0.000000     12.000000
  0.280000  0.040000  0.000000     12.000000
  0.320000  0.040000  0.000000     12.000000
  0.360000  0.040000  0.000000     12.000000
  0.400000  0.040000  0.000000     12.000000
  0.440000  0.040000  0.000000     12.000000
  0.480000  0.040000  0.000000      6.000000
  0.080000  0.080000  0.000000      6.000000
  0.120000  0.080000  0.000000     12.000000
  0.160000  0.080000  0.000000     12.000000
  0.200000  0.080000  0.000000     12.000000
  0.240000  0.080000  0.000000     12.000000
  0.280000  0.080000  0.000000     12.000000
  0.320000  0.080000  0.000000     12.000000
  0.360000  0.080000  0.000000     12.000000
  0.400000  0.080000  0.000000     12.000000
  0.440000  0.080000  0.000000     12.000000
  0.120000  0.120000  0.000000      6.000000
  0.160000  0.120000  0.000000     12.000000
  0.200000  0.120000  0.000000     12.000000
  0.240000  0.120000  0.000000     12.000000
  0.280000  0.120000  0.000000     12.000000
  0.320000  0.120000  0.000000     12.000000
  0.360000  0.120000  0.000000     12.000000
  0.400000  0.120000  0.000000     12.000000
  0.440000  0.120000  0.000000      6.000000
  0.160000  0.160000  0.000000      6.000000
  0.200000  0.160000  0.000000     12.000000
  0.240000  0.160000  0.000000     12.000000
  0.280000  0.160000  0.000000     12.000000
  0.320000  0.160000  0.000000     12.000000
  0.360000  0.160000  0.000000     12.000000
  0.400000  0.160000  0.000000     12.000000
  0.200000  0.200000  0.000000      6.000000
  0.240000  0.200000  0.000000     12.000000
  0.280000  0.200000  0.000000     12.000000
  0.320000  0.200000  0.000000     12.000000
  0.360000  0.200000  0.000000     12.000000
  0.400000  0.200000  0.000000      6.000000
  0.240000  0.240000  0.000000      6.000000
  0.280000  0.240000  0.000000     12.000000
  0.320000  0.240000  0.000000     12.000000
  0.360000  0.240000  0.000000     12.000000
  0.280000  0.280000  0.000000      6.000000
  0.320000  0.280000  0.000000     12.000000
  0.360000  0.280000  0.000000      6.000000
  0.320000  0.320000  0.000000      6.000000

 Following cartesian coordinates:
            Coordinates               Weight
  0.000000  0.000000  0.000000      1.000000
  0.012546  0.007243  0.000000      6.000000
  0.025092  0.014487  0.000000      6.000000
  0.037638  0.021730  0.000000      6.000000
  0.050184  0.028974  0.000000      6.000000
  0.062730  0.036217  0.000000      6.000000
  0.075276  0.043460  0.000000      6.000000
  0.087822  0.050704  0.000000      6.000000
  0.100367  0.057947  0.000000      6.000000
  0.112913  0.065191  0.000000      6.000000
  0.125459  0.072434  0.000000      6.000000
  0.138005  0.079677  0.000000      6.000000
  0.150551  0.086921  0.000000      6.000000
  0.012546  0.021730  0.000000      6.000000
  0.025092  0.028974  0.000000     12.000000
  0.037638  0.036217  0.000000     12.000000
  0.050184  0.043460  0.000000     12.000000
  0.062730  0.050704  0.000000     12.000000
  0.075276  0.057947  0.000000     12.000000
  0.087822  0.065191  0.000000     12.000000
  0.100367  0.072434  0.000000     12.000000
  0.112913  0.079677  0.000000     12.000000
  0.125459  0.086921  0.000000     12.000000
  0.138005  0.094164  0.000000     12.000000
  0.150551  0.101408  0.000000      6.000000
  0.025092  0.043460  0.000000      6.000000
  0.037638  0.050704  0.000000     12.000000
  0.050184  0.057947  0.000000     12.000000
  0.062730  0.065191  0.000000     12.000000
  0.075276  0.072434  0.000000     12.000000
  0.087822  0.079677  0.000000     12.000000
  0.100367  0.086921  0.000000     12.000000
  0.112913  0.094164  0.000000     12.000000
  0.125459  0.101408  0.000000     12.000000
  0.138005  0.108651  0.000000     12.000000
  0.037638  0.065191  0.000000      6.000000
  0.050184  0.072434  0.000000     12.000000
  0.062730  0.079677  0.000000     12.000000
  0.075276  0.086921  0.000000     12.000000
  0.087822  0.094164  0.000000     12.000000
  0.100367  0.101408  0.000000     12.000000
  0.112913  0.108651  0.000000     12.000000
  0.125459  0.115894  0.000000     12.000000
  0.138005  0.123138  0.000000      6.000000
  0.050184  0.086921  0.000000      6.000000
  0.062730  0.094164  0.000000     12.000000
  0.075276  0.101408  0.000000     12.000000
  0.087822  0.108651  0.000000     12.000000
  0.100367  0.115894  0.000000     12.000000
  0.112913  0.123138  0.000000     12.000000
  0.125459  0.130381  0.000000     12.000000
  0.062730  0.108651  0.000000      6.000000
  0.075276  0.115894  0.000000     12.000000
  0.087822  0.123138  0.000000     12.000000
  0.100367  0.130381  0.000000     12.000000
  0.112913  0.137625  0.000000     12.000000
  0.125459  0.144868  0.000000      6.000000
  0.075276  0.130381  0.000000      6.000000
  0.087822  0.137625  0.000000     12.000000
  0.100367  0.144868  0.000000     12.000000
  0.112913  0.152111  0.000000     12.000000
  0.087822  0.152111  0.000000      6.000000
  0.100367  0.159355  0.000000     12.000000
  0.112913  0.166598  0.000000      6.000000
  0.100367  0.173842  0.000000      6.000000

 TETIRR: Found    325 inequivalent tetrahedra from     3750

 SYSTEM =  VSe2
 POSCAR =  Primitive Cell, D = 3.1212

 Startparameter for this run:
   NWRITE =      2    write-flag & timer
   PREC   = accura    normal or accurate (medium, high low for compatibility)
   ISTART =      0    job   : 0-new  1-cont  2-samecut
   ICHARG =      1    charge: 1-file 2-atom 10-const
   ISPIN  =      2    spin polarized calculation?
   LNONCOLLINEAR =      F non collinear calculations
   LSORBIT =      F    spin-orbit coupling
[...]
  o =  0.3836  v =  0.0000  0.0000  1.0000  0.0000  0.0000  0.0000  0.0000  0.0000  0.0000  0.0000      0.0000  0.0000  0.0000  0.0000  0.0000  0.0000  0.0000  0.0000  0.0000  0.0000
  o =  0.3836  v =  0.0000  0.0000  0.0000  1.0000  0.0000  0.0000  0.0000  0.0000  0.0000  0.0000      0.0000  0.0000  0.0000  0.0000  0.0000  0.0000  0.0000  0.0000  0.0000  0.0000
  o =  0.3836  v =  0.0000  0.0000  0.0000  0.0000  1.0000  0.0000  0.0000  0.0000  0.0000  0.0000      0.0000  0.0000  0.0000  0.0000  0.0000  0.0000  0.0000  0.0000  0.0000  0.0000
 BZINTS: Fermi energy: 12.147128; 46.000000 electrons
         Band energy:-242.831385;  BLOECHL correction: -0.109703

 eigenvalue-minimisations  : 10032
 total energy-change (2. order) : 0.4015310E+03  (-0.2146992E+04)
 number of electron      46.0000000 magnetization       4.0000000
 augmentation part       46.0000000 magnetization       4.0000000

 DIPCOR: dipole corrections for dipol
 direction  3 min pos   270,
 dipolmoment           0.000000      0.000000     -0.000042 electrons x Angstroem
 Tr[quadrupol]       -48.332916

 energy correction for charged system         0.000000 eV
 dipol+quadrupol energy correction           -0.000000 eV
 added-field ion interaction          0.001276 eV  (added to PSCEN)

 Free energy of the ion-electron system (eV)
  alpha Z        PSCENC =        63.27148871
  Ewald energy   TEWEN  =     17390.22404797
  -Hartree energ DENC   =    -20727.96225693
  -exchange      EXHF   =         0.00000000
  -V(xc)+E(xc)   XCENC  =       106.35186889
  PAW double counting   =      3045.60422107    -2983.64063932
  entropy T*S    EENTRO =         0.00000000
  eigenvalues    EBANDS =      -242.83138546
  atomic energy  EATOM  =      3750.51368352
  Solvation  Ediel_sol  =         0.00000000
  free energy    TOTEN  =       401.53102846 eV

  energy without entropy =      401.53102846  energy(sigma->0) =      401.53102846

[...]

 BZINTS: Fermi energy:  1.304509; 46.000000 electrons
         Band energy:-636.248852;  BLOECHL correction: -0.083066

 eigenvalue-minimisations  :  9144
 total energy-change (2. order) :-0.3934175E+03  (-0.3783386E+03)
 number of electron      46.0000000 magnetization       4.0000000
 augmentation part       46.0000000 magnetization       4.0000000

[...]

 Broyden mixing:
  rms(total) = 0.35062E+01    rms(broyden)= 0.35061E+01
  rms(prec ) = 0.35669E+01
  weight for this iteration     100.00

[...]

 eigenvalues of (default mixing * dielectric matrix)
  average eigenvalue GAMMA=   0.5273
  0.5273

[...]

 eigenvalue-minimisations  : 11440
 total energy-change (2. order) : 0.1469601E+01  (-0.1931377E+00)
 number of electron      46.0000023 magnetization       3.2242812
 augmentation part        5.8074233 magnetization       2.5231325

[...]

 Broyden mixing:
  rms(total) = 0.26849E-04    rms(broyden)= 0.26845E-04
  rms(prec ) = 0.27164E-04
  weight for this iteration     100.00

 eigenvalues of (default mixing * dielectric matrix)
  average eigenvalue GAMMA=   2.1481
 15.4313 10.8204  6.7209  4.7683  3.1459  2.4485  2.4485  1.8778  1.8778  1.5845
  1.5845  1.6668  1.2809  1.2809  1.0665  1.0665  0.9138  0.9138  0.3591  0.9929
  0.8652  0.8652  0.7315  0.7315  0.6673  0.6673  0.6269  0.6269  0.6031  0.6031
  0.5682  0.5794  0.5023

[...]

--------------------------------------- Iteration      1(  39)  ---------------------------------------

atom =   1  type =  1  l = 2

[...]

  o =  0.1350  v =  0.0000  0.0000  0.0000  0.0000  0.0000 -0.0000  0.0000 -1.0000 -0.0000  0.0000      0.0000  0.0000  0.0000  0.0000  0.0000  0.0000  0.0000  0.0000  0.0000  0.0000
  o =  0.1643  v =  0.0000  0.0000  0.0000  0.0000  0.0000 -0.6416  0.3256  0.0000 -0.3473  0.6015      0.0000  0.0000  0.0000  0.0000  0.0000  0.0000  0.0000  0.0000  0.0000  0.0000
  o =  0.1643  v =  0.0000  0.0000  0.0000  0.0000  0.0000 -0.6015 -0.3473  0.0000 -0.3256 -0.6416      0.0000  0.0000  0.0000  0.0000  0.0000  0.0000  0.0000  0.0000  0.0000  0.0000
  o =  0.3283  v =  0.7050  0.1758  0.0000 -0.1875 -0.6610  0.0000  0.0000  0.0000  0.0000  0.0000      0.0000  0.0000  0.0000  0.0000  0.0000  0.0000  0.0000  0.0000  0.0000  0.0000
  o =  0.3283  v = -0.6610  0.1875 -0.0000  0.1758 -0.7050  0.0000  0.0000  0.0000  0.0000  0.0000      0.0000  0.0000  0.0000  0.0000  0.0000  0.0000  0.0000  0.0000  0.0000  0.0000
  o =  0.3306  v =  0.0000  0.0000  0.0000  0.0000  0.0000 -0.3472 -0.6016  0.0000  0.6415  0.3256      0.0000  0.0000  0.0000  0.0000  0.0000  0.0000  0.0000  0.0000  0.0000  0.0000
  o =  0.3306  v =  0.0000  0.0000  0.0000  0.0000  0.0000  0.3256 -0.6415 -0.0000 -0.6016  0.3472      0.0000  0.0000  0.0000  0.0000  0.0000  0.0000  0.0000  0.0000  0.0000  0.0000
  o =  0.3665  v =  0.0000  0.0000 -1.0000 -0.0000 -0.0000  0.0000  0.0000  0.0000  0.0000  0.0000      0.0000  0.0000  0.0000  0.0000  0.0000  0.0000  0.0000  0.0000  0.0000  0.0000
  o =  0.4252  v = -0.1875  0.6610  0.0000 -0.7050  0.1758  0.0000  0.0000  0.0000  0.0000  0.0000      0.0000  0.0000  0.0000  0.0000  0.0000  0.0000  0.0000  0.0000  0.0000  0.0000
  o =  0.4252  v =  0.1758  0.7050 -0.0000  0.6610  0.1875  0.0000  0.0000  0.0000  0.0000  0.0000      0.0000  0.0000  0.0000  0.0000  0.0000  0.0000  0.0000  0.0000  0.0000  0.0000
atom =   2  type =  1  l = 2

 onsite density matrix

[...]

  0.2020  0.0000 -0.0000 -0.0696  0.0000
  0.0000  0.2929 -0.0000  0.0000 -0.0696
 -0.0000 -0.0000  0.1350  0.0000  0.0000
 -0.0696  0.0000  0.0000  0.2929 -0.0000
  0.0000 -0.0696  0.0000 -0.0000  0.2020

 occupancies and eigenvectors

  o =  0.1350  v =  0.0000  0.0000  0.0000  0.0000  0.0000 -0.0000  0.0000 -1.0000 -0.0000  0.0000      0.0000  0.0000  0.0000  0.0000  0.0000  0.0000  0.0000  0.0000  0.0000  0.0000
  o =  0.1643  v =  0.0000  0.0000  0.0000  0.0000  0.0000 -0.6414  0.3257  0.0000 -0.3472  0.6016      0.0000  0.0000  0.0000  0.0000  0.0000  0.0000  0.0000  0.0000  0.0000  0.0000
  o =  0.1643  v =  0.0000  0.0000  0.0000  0.0000  0.0000 -0.6016 -0.3472  0.0000 -0.3257 -0.6414      0.0000  0.0000  0.0000  0.0000  0.0000  0.0000  0.0000  0.0000  0.0000  0.0000
  o =  0.3283  v =  0.7051  0.1758  0.0000 -0.1875 -0.6609  0.0000  0.0000  0.0000  0.0000  0.0000      0.0000  0.0000  0.0000  0.0000  0.0000  0.0000  0.0000  0.0000  0.0000  0.0000
  o =  0.3283  v = -0.6609  0.1875 -0.0000  0.1758 -0.7051  0.0000  0.0000  0.0000  0.0000  0.0000      0.0000  0.0000  0.0000  0.0000  0.0000  0.0000  0.0000  0.0000  0.0000  0.0000
  o =  0.3306  v =  0.0000  0.0000  0.0000  0.0000  0.0000 -0.3472 -0.6016  0.0000  0.6415  0.3256      0.0000  0.0000  0.0000  0.0000  0.0000  0.0000  0.0000  0.0000  0.0000  0.0000
  o =  0.3306  v =  0.0000  0.0000  0.0000  0.0000  0.0000  0.3256 -0.6415 -0.0000 -0.6016  0.3472      0.0000  0.0000  0.0000  0.0000  0.0000  0.0000  0.0000  0.0000  0.0000  0.0000
  o =  0.3665  v =  0.0000  0.0000 -1.0000 -0.0000 -0.0000  0.0000  0.0000  0.0000  0.0000  0.0000      0.0000  0.0000  0.0000  0.0000  0.0000  0.0000  0.0000  0.0000  0.0000  0.0000
  o =  0.4252  v = -0.1875  0.6610  0.0000 -0.7049  0.1758  0.0000  0.0000  0.0000  0.0000  0.0000      0.0000  0.0000  0.0000  0.0000  0.0000  0.0000  0.0000  0.0000  0.0000  0.0000
  o =  0.4252  v =  0.1758  0.7049 -0.0000  0.6610  0.1875  0.0000  0.0000  0.0000  0.0000  0.0000      0.0000  0.0000  0.0000  0.0000  0.0000  0.0000  0.0000  0.0000  0.0000  0.0000
 BZINTS: Fermi energy: -1.029498; 46.000000 electrons
         Band energy:-697.903246;  BLOECHL correction: -0.007310

 eigenvalue-minimisations  :  4240
 total energy-change (2. order) :-0.2563274E-07  (-0.4776500E-08)
 number of electron      46.0000024 magnetization       1.4089071
 augmentation part        5.9752467 magnetization       0.8985862

 DIPCOR: dipole corrections for dipol
 direction  3 min pos   282,
 dipolmoment           0.000000      0.000000     -0.000000 electrons x Angstroem
 Tr[quadrupol]       -49.493509

 energy correction for charged system         0.000000 eV
 dipol+quadrupol energy correction           -0.000000 eV
 added-field ion interaction          0.000000 eV  (added to PSCEN)

 Free energy of the ion-electron system (eV)
  alpha Z        PSCENC =        63.27021285
  Ewald energy   TEWEN  =     17390.22404797
  -Hartree energ DENC   =    -20701.51276331
  -exchange      EXHF   =         0.00000000
  -V(xc)+E(xc)   XCENC  =       104.50218490
  PAW double counting   =      5037.13009971    -4983.71925956
  entropy T*S    EENTRO =         0.00000000
  eigenvalues    EBANDS =      -697.90324621
  atomic energy  EATOM  =      3750.51368352
  Solvation  Ediel_sol  =         0.00000000
  free energy    TOTEN  =       -37.49504013 eV

  energy without entropy =      -37.49504013  energy(sigma->0) =      -37.49504013

 average (electrostatic) potential at core
  the test charge radii are     0.9339  0.9698
  (the norm of the test charge is              1.0000)
       1 -54.7592       2 -54.7592       3 -92.6660       4 -92.7036       5 -92.7036
       6 -92.6661

 E-fermi :  -1.0295     XC(G=0):  -4.6777     alpha+bet : -4.7721

[...]

 k-point     1 :       0.0000    0.0000    0.0000
  band No.  band energies     occupation
      1     -40.2326      1.00000
      2     -40.2326      1.00000
      3     -40.2326      1.00000
      4     -40.2326      1.00000
      5     -40.1823      1.00000
      6     -40.1822      1.00000
      7     -15.5526      1.00000
      8     -15.4323      1.00000
      9     -14.3454      1.00000
     10     -14.1620      1.00000
     11      -6.9078      1.00000
     12      -6.3445      1.00000
     13      -3.9652      1.00000
     14      -3.9652      1.00000
     15      -3.9582      1.00000
     16      -3.9582      1.00000
     17      -3.6371      1.00000
     18      -2.6504      1.00000
     19      -1.6520      1.00000
     20      -1.6520      1.00000
     21      -1.6495      1.00000
     22      -1.6495      1.00000
     23      -1.3634      1.00000
     24      -0.9457     -0.10113
     25      -0.6395      0.00000
     26      -0.6395      0.00000
     27      -0.5947      0.00000
     28      -0.5947      0.00000
     29       2.1474      0.00000
     30       2.1474      0.00000
     31       2.2210      0.00000
     32       2.2210      0.00000

[...]

 spin component 2

[...]

 k-point    65 :       0.3200    0.3200    0.0000
  band No.  band energies     occupation
      1     -39.5937      1.00000
      2     -39.5937      1.00000
      3     -39.5822      1.00000
      4     -39.5822      1.00000
      5     -39.3386      1.00000
      6     -39.3385      1.00000
      7     -13.2506      1.00000
      8     -13.2328      1.00000
      9     -13.2032      1.00000
     10     -13.2031      1.00000
     11      -6.0072      1.00000
     12      -6.0059      1.00000
     13      -5.9287      1.00000
     14      -5.8637      1.00000
     15      -5.6555      1.00000
     16      -5.5860      1.00000
     17      -4.5542      1.00000
     18      -4.3704      1.00000
     19      -4.0272      1.00000
     20      -3.9727      1.00000
     21      -3.8803      1.00000
     22      -3.8736      1.00000
     23       0.2696      0.00000
     24       0.2796      0.00000
     25       0.3440      0.00000
     26       0.4457      0.00000
     27       0.4694      0.00000
     28       0.5474      0.00000
     29       1.5900      0.00000
     30       1.8316      0.00000
     31       1.8686      0.00000
     32       2.1281      0.00000

 soft charge-density along one line, spin component           1
         0         1         2         3         4         5         6         7         8         9
 total charge-density along one line

 soft charge-density along one line, spin component           2
         0         1         2         3         4         5         6         7         8         9
 total charge-density along one line

------------------------ aborting loop because EDIFF is reached ----------------------------------------

 total charge

# of ion       s       p       d       tot
    1        0.278   6.278   2.970   9.525
    2        0.278   6.278   2.970   9.525
    3        1.366   2.338   0.000   3.705
    4        1.367   2.336   0.000   3.704
    5        1.367   2.336   0.000   3.704
    6        1.366   2.338   0.000   3.705
tot          6.024  21.904   5.939  33.867

 magnetization (x)

[...]

  DFT-D2 method for vdW energy calculation

  Parameters of vdW forcefield:
         C6(Jnm^6/mol)     R0(A)
   V       10.800          1.562
   S        5.570          1.683

  IVDW =   1
  VDW_RADIUS =    50.000 A
  VDW_S6 =     0.750
  VDW_SR =     1.000
  VDW_D =    20.000
  LVDW_EWALD = F

  Number of pair interactions contributing to vdW energy:   43293
  Edisp (eV):   -1.08456

  FORCE on cell =-STRESS in cart. coord.  units (eV):
  Direction    XX          YY          ZZ          XY          YZ          ZX
  Alpha Z    63.27021    63.27021    63.27021
  Ewald   19475.18034 19475.18037-21560.13832    -0.00002     0.00001     0.00002
  Hartree 20246.59931 20246.59930-19791.68377     0.00000    -0.00000    -0.00000
  E(xc)    -204.63847  -204.63847  -205.27178     0.00000    -0.00000     0.00000
  Local  -40343.28679-40343.28688 40713.38779    -0.00005    -0.00001    -0.00001
  n-local   148.36175   148.11597   154.71828    -0.80333    -0.52296    -1.69364
  augment     0.89621     0.89627     2.08632     0.00005    -0.00000    -0.00000
  Kinetic   610.10495   620.08335   624.22831    -7.02978     4.24482    10.30703
  Fock        0.00000     0.00000     0.00000     0.00000     0.00000     0.00000
  vdW        -0.30391    -0.30391    -0.56154     0.00000    -0.00000    -0.00000
  Total       1.04991     1.04991     0.03550     0.00000    -0.00000     0.00000
  in kB       6.59107     6.59107     0.22287     0.00000    -0.00000     0.00000

 VOLUME and BASIS-vectors are now :
  energy-cutoff  :      500.00
  volume of cell :      255.22
      direct lattice vectors                 reciprocal lattice vectors
     3.188283682  0.000000000  0.000000000     0.313648376  0.181084974  0.000000000
    -1.594141841  2.761134663  0.000000000     0.000000000  0.362169949  0.000000000
     0.000000000  0.000000000 28.990970612     0.000000000  0.000000000  0.034493498

  length of vectors
     3.188283682  3.188283682 28.990970612     0.362169949  0.362169949  0.034493498

 FORCES acting on ions
    electron-ion (+dipol)            ewald-force                    non-local-force                 convergence-correction
   0.838E-06 -.142E-05 0.151E+04   0.616E-05 -.107E-04 -.151E+04   -.434E-18 0.217E-18 0.131E+00   0.583E-09 -.346E-09 0.106E-03
   0.824E-06 -.148E-05 -.151E+04   0.616E-05 -.107E-04 0.151E+04   0.325E-18 -.108E-18 -.131E+00   -.565E-09 0.316E-09 -.106E-03
   -.487E-04 0.282E-04 0.152E+04   -.642E-05 0.353E-05 -.152E+04   -.520E-17 -.694E-17 0.298E+01   0.806E-10 -.467E-10 -.158E-03
   0.731E-06 0.546E-04 0.130E+03   0.359E-06 0.720E-05 -.128E+03   -.173E-16 0.139E-16 -.284E+01   0.123E-10 0.435E-11 0.210E-03
   -.485E-04 0.281E-04 -.130E+03   -.652E-05 0.348E-05 0.128E+03   0.139E-16 -.208E-16 0.284E+01   -.219E-10 0.124E-10 -.210E-03
   0.722E-06 0.548E-04 -.152E+04   0.258E-06 0.713E-05 0.152E+04   0.156E-16 0.139E-16 -.298E+01   -.102E-09 0.832E-10 0.158E-03
   -.941E-04 0.163E-03 -.712E-03   -.396E-13 -.179E-15 0.227E-12   0.683E-17 0.108E-18 -.444E-15   -.131E-10 0.228E-10 0.223E-07

 POSITION                                       TOTAL-FORCE (eV/Angst)
      0.00000      0.00000      1.46744        -0.000000      0.000000      0.081217
      0.00000      0.00000      7.52354         0.000000     -0.000000     -0.081217
      1.59414      0.92038      0.00000        -0.000000      0.000000     -0.075449
     -0.00000      1.84076      2.93487        -0.000000      0.000000      0.026070
      1.59414      0.92038      6.05610         0.000000     -0.000000     -0.026070
     -0.00000      1.84076      8.99097         0.000000     -0.000000      0.075449
    total drift:                               -0.000094      0.000163     -0.000712

  FREE ENERGIE OF THE ION-ELECTRON SYSTEM (eV)
  free  energy   TOTEN  =       -38.57960111 eV

  energy  without entropy=      -38.57960111  energy(sigma->0) =      -38.57960111

 total charge

[...]

 magnetization (x)

# of ion       s       p       d       tot
    1        0.009   0.006   0.746   0.761
    2        0.009   0.006   0.746   0.761
    3       -0.002  -0.058   0.000  -0.060
    4       -0.001  -0.057   0.000  -0.058
    5       -0.001  -0.057   0.000  -0.058
    6       -0.002  -0.058   0.000  -0.060
tot          0.012  -0.219   1.492   1.285

 BZINTS: Fermi energy: -1.029498; 46.000000 electrons
         Band energy:-697.903246;  BLOECHL correction: -0.007310