 vasp.5.4.4.18Apr17-6-g9f103f2a35 (build May 20 2019 14:42:51) complex

 executed on             LinuxIFC date 2021.06.28  16:45:55

 INCAR:
 POTCAR:    PAW_PBE V_pv 07Sep2000
 POTCAR:    PAW_PBE S 06Sep2000
 POTCAR:    PAW_PBE V_pv 07Sep2000
   VRHFIN =V: p6 d4 s1

   TITEL  = PAW_PBE V_pv 07Sep2000
   POMASS =   50.941; ZVAL   =   11.000    mass and valenz
   ENMAX  =  263.673; ENMIN  =  197.755 eV

 POTCAR:    PAW_PBE S 06Sep2000
   VRHFIN =S : s2p4

   TITEL  = PAW_PBE S 06Sep2000
   POMASS =   32.066; ZVAL   =    6.000    mass and valenz
   ENMAX  =  258.689; ENMIN  =  194.016 eV

  PAW_PBE V_pv 07Sep2000                :
  PAW_PBE S 06Sep2000                   :

 POSCAR: Primitive Cell, D = 3.1212
  positions in direct lattice
  velocities in cartesian coordinates
 exchange correlation table for  LEXCH =        8
   RHO(1)=    0.500       N(1)  =     2000
   RHO(2)=  100.500       N(2)  =     4000

 ion  position               nearest neighbor table
   1  0.000  0.000  0.051-   3 2.35   4 2.35   4 2.35   3 2.35   3 2.35   4 2.35
   2  0.000  0.000  0.260-   5 2.35   5 2.35   5 2.35   6 2.35   6 2.35   6 2.35
   3  0.667  0.333  0.000-   1 2.35   1 2.35   1 2.35
   4  0.333  0.667  0.101-   1 2.35   1 2.35   1 2.35
   5  0.667  0.333  0.209-   2 2.35   2 2.35   2 2.35
   6  0.333  0.667  0.310-   2 2.35   2 2.35   2 2.35

  LATTYP: Found a hexagonal cell.
 ALAT       =     3.1882836819
 C/A-ratio  =     9.0929708595

  Lattice vectors:

 A1 = (   3.1882836819,   0.0000000000,   0.0000000000)
 A2 = (  -1.5941418409,   2.7611346630,   0.0000000000)
 A3 = (   0.0000000000,   0.0000000000,  28.9909706116)

Analysis of symmetry for initial positions (statically):
 Subroutine PRICEL returns:
 Original cell was already a primitive cell.

 Routine SETGRP: Setting up the symmetry group for a
 hexagonal supercell.

 Subroutine GETGRP returns: Found 12 space group operations
 (whereof  6 operations were pure point group operations)
 out of a pool of 24 trial point group operations.

The static configuration has the point symmetry C_3v.
 The point group associated with its full space group is D_3d.

Analysis of symmetry for dynamics (positions and initial velocities):
 Subroutine PRICEL returns:
 Original cell was already a primitive cell.

[...]

The dynamic configuration has the point symmetry C_3v.
 The point group associated with its full space group is D_3d.

Analysis of structural, dynamic, and magnetic symmetry:
 Subroutine PRICEL returns:
 Original cell was already a primitive cell.

 Routine SETGRP: Setting up the symmetry group for a
 hexagonal supercell.

 Subroutine GETGRP returns: Found 12 space group operations
 (whereof  6 operations were pure point group operations)
 out of a pool of 24 trial point group operations.

The magnetic configuration has the point symmetry C_3v.
 The point group associated with its full space group is D_3d.

 Subroutine INISYM returns: Found 12 space group operations
 (whereof  6 operations are pure point group operations),
 and found     1 'primitive' translations

 KPOINTS: !Auto mesh

Automatic generation of k-mesh.
Space group operators:
 irot       det(A)        alpha          n_x          n_y          n_z        tau_x        tau_y        tau_z
    1     1.000000     0.000000     1.000000     0.000000     0.000000     0.000000     0.000000     0.000000
    2     1.000000   120.000000     0.000000     0.000000    -1.000000     0.000000     0.000000     0.000000
    3     1.000000   120.000000     0.000000     0.000000     1.000000     0.000000     0.000000     0.000000
    4    -1.000000   180.000000     1.000000    -0.000000     0.000000     0.000000     0.000000     0.000000
    5    -1.000000   180.000000     0.500000    -0.866025     0.000000     0.000000     0.000000     0.000000
    6    -1.000000   180.000000    -0.500000    -0.866025     0.000000     0.000000     0.000000     0.000000
    7    -1.000000     0.000000     1.000000     0.000000     0.000000     0.000000     0.000000     0.310130
    8    -1.000000   120.000000     0.000000     0.000000    -1.000000     0.000000     0.000000     0.310130
    9    -1.000000   120.000000     0.000000     0.000000     1.000000     0.000000     0.000000     0.310130
   10     1.000000   180.000000     1.000000    -0.000000     0.000000     0.000000     0.000000     0.310130
   11     1.000000   180.000000     0.500000    -0.866025     0.000000     0.000000     0.000000     0.310130
   12     1.000000   180.000000    -0.500000    -0.866025     0.000000     0.000000     0.000000     0.310130

 Subroutine IBZKPT returns following result:

 Found    120 irreducible k-points:

 Following reciprocal coordinates:
            Coordinates               Weight
  0.000000  0.000000  0.000000      1.000000
  0.028571  0.000000  0.000000      6.000000
  0.057143  0.000000  0.000000      6.000000
  0.085714  0.000000  0.000000      6.000000
  0.114286  0.000000  0.000000      6.000000
  0.142857  0.000000  0.000000      6.000000
  0.171429  0.000000  0.000000      6.000000
  0.200000  0.000000  0.000000      6.000000
  0.228571  0.000000  0.000000      6.000000
  0.257143  0.000000  0.000000      6.000000
  0.285714  0.000000  0.000000      6.000000
  0.314286  0.000000  0.000000      6.000000
  0.342857  0.000000  0.000000      6.000000
  0.371429  0.000000  0.000000      6.000000
  0.400000  0.000000  0.000000      6.000000
  0.428571  0.000000  0.000000      6.000000
  0.457143  0.000000  0.000000      6.000000
  0.485714  0.000000  0.000000      6.000000
  0.028571  0.028571  0.000000      6.000000
  0.057143  0.028571  0.000000     12.000000
  0.085714  0.028571  0.000000     12.000000
  0.114286  0.028571  0.000000     12.000000
  0.142857  0.028571  0.000000     12.000000
  0.171429  0.028571  0.000000     12.000000
  0.200000  0.028571  0.000000     12.000000
  0.228571  0.028571  0.000000     12.000000
  0.257143  0.028571  0.000000     12.000000
  0.285714  0.028571  0.000000     12.000000
  0.314286  0.028571  0.000000     12.000000
  0.342857  0.028571  0.000000     12.000000
  0.371429  0.028571  0.000000     12.000000
  0.400000  0.028571  0.000000     12.000000
  0.428571  0.028571  0.000000     12.000000
  0.457143  0.028571  0.000000     12.000000
  0.485714  0.028571  0.000000      6.000000
  0.057143  0.057143  0.000000      6.000000
  0.085714  0.057143  0.000000     12.000000
  0.114286  0.057143  0.000000     12.000000
  0.142857  0.057143  0.000000     12.000000
  0.171429  0.057143  0.000000     12.000000
  0.200000  0.057143  0.000000     12.000000
  0.228571  0.057143  0.000000     12.000000
  0.257143  0.057143  0.000000     12.000000
  0.285714  0.057143  0.000000     12.000000
  0.314286  0.057143  0.000000     12.000000
  0.342857  0.057143  0.000000     12.000000
  0.371429  0.057143  0.000000     12.000000
  0.400000  0.057143  0.000000     12.000000
  0.428571  0.057143  0.000000     12.000000
  0.457143  0.057143  0.000000     12.000000
  0.085714  0.085714  0.000000      6.000000
  0.114286  0.085714  0.000000     12.000000
  0.142857  0.085714  0.000000     12.000000
  0.171429  0.085714  0.000000     12.000000
  0.200000  0.085714  0.000000     12.000000
  0.228571  0.085714  0.000000     12.000000
  0.257143  0.085714  0.000000     12.000000
  0.285714  0.085714  0.000000     12.000000
  0.314286  0.085714  0.000000     12.000000
  0.342857  0.085714  0.000000     12.000000
[...]
  0.257143  0.228571  0.000000     12.000000
  0.285714  0.228571  0.000000     12.000000
  0.314286  0.228571  0.000000     12.000000
  0.342857  0.228571  0.000000     12.000000
  0.371429  0.228571  0.000000     12.000000
  0.257143  0.257143  0.000000      6.000000
  0.285714  0.257143  0.000000     12.000000
  0.314286  0.257143  0.000000     12.000000
  0.342857  0.257143  0.000000     12.000000
  0.371429  0.257143  0.000000      6.000000
  0.285714  0.285714  0.000000      6.000000
  0.314286  0.285714  0.000000     12.000000
  0.342857  0.285714  0.000000     12.000000
  0.314286  0.314286  0.000000      6.000000
  0.342857  0.314286  0.000000      6.000000

 Following cartesian coordinates:
            Coordinates               Weight
  0.000000  0.000000  0.000000      1.000000
  0.008961  0.005174  0.000000      6.000000
  0.017923  0.010348  0.000000      6.000000
  0.026884  0.015522  0.000000      6.000000
  0.035846  0.020695  0.000000      6.000000
  0.044807  0.025869  0.000000      6.000000
  0.053768  0.031043  0.000000      6.000000
  0.062730  0.036217  0.000000      6.000000
  0.071691  0.041391  0.000000      6.000000
  0.080652  0.046565  0.000000      6.000000
  0.089614  0.051739  0.000000      6.000000
  0.098575  0.056912  0.000000      6.000000
  0.107537  0.062086  0.000000      6.000000
  0.116498  0.067260  0.000000      6.000000
  0.125459  0.072434  0.000000      6.000000
  0.134421  0.077608  0.000000      6.000000
  0.143382  0.082782  0.000000      6.000000
  0.152343  0.087956  0.000000      6.000000
  0.008961  0.015522  0.000000      6.000000
  0.017923  0.020695  0.000000     12.000000
  0.026884  0.025869  0.000000     12.000000
  0.035846  0.031043  0.000000     12.000000
  0.044807  0.036217  0.000000     12.000000
  0.053768  0.041391  0.000000     12.000000
  0.062730  0.046565  0.000000     12.000000
  0.071691  0.051739  0.000000     12.000000
  0.080652  0.056912  0.000000     12.000000
  0.089614  0.062086  0.000000     12.000000
  0.098575  0.067260  0.000000     12.000000
  0.107537  0.072434  0.000000     12.000000
  0.116498  0.077608  0.000000     12.000000
  0.125459  0.082782  0.000000     12.000000
  0.134421  0.087956  0.000000     12.000000
  0.143382  0.093129  0.000000     12.000000
  0.152343  0.098303  0.000000      6.000000
  0.017923  0.031043  0.000000      6.000000
  0.026884  0.036217  0.000000     12.000000
  0.035846  0.041391  0.000000     12.000000
  0.044807  0.046565  0.000000     12.000000
  0.053768  0.051739  0.000000     12.000000
  0.062730  0.056912  0.000000     12.000000
  0.071691  0.062086  0.000000     12.000000
  0.080652  0.067260  0.000000     12.000000
  0.089614  0.072434  0.000000     12.000000
  0.098575  0.077608  0.000000     12.000000
  0.107537  0.082782  0.000000     12.000000
  0.116498  0.087956  0.000000     12.000000
  0.125459  0.093129  0.000000     12.000000
  0.134421  0.098303  0.000000     12.000000
  0.143382  0.103477  0.000000     12.000000
  0.026884  0.046565  0.000000      6.000000
  0.035846  0.051739  0.000000     12.000000
  0.044807  0.056912  0.000000     12.000000
  0.053768  0.062086  0.000000     12.000000
  0.062730  0.067260  0.000000     12.000000
  0.071691  0.072434  0.000000     12.000000
  0.080652  0.077608  0.000000     12.000000
  0.089614  0.082782  0.000000     12.000000
  0.098575  0.087956  0.000000     12.000000
  0.107537  0.093129  0.000000     12.000000
[...]
  0.080652  0.129346  0.000000     12.000000
  0.089614  0.134520  0.000000     12.000000
  0.098575  0.139694  0.000000     12.000000
  0.107537  0.144868  0.000000     12.000000
  0.116498  0.150042  0.000000     12.000000
  0.080652  0.139694  0.000000      6.000000
[...]
 k-point ** :   0.3143 0.2571 0.0000  plane waves:    6479
 k-point ** :   0.3429 0.2571 0.0000  plane waves:    6475
 k-point ** :   0.3714 0.2571 0.0000  plane waves:    6464
 k-point ** :   0.2857 0.2857 0.0000  plane waves:    6474
 k-point ** :   0.3143 0.2857 0.0000  plane waves:    6475
 k-point ** :   0.3429 0.2857 0.0000  plane waves:    6477
 k-point ** :   0.3143 0.3143 0.0000  plane waves:    6470
 k-point ** :   0.3429 0.3143 0.0000  plane waves:    6452

 maximum and minimum number of plane-waves per node :      2189     2139

 maximum number of plane-waves:      6532
 maximum index in each direction:
   IXMAX=    5   IYMAX=    5   IZMAX=   52
   IXMIN=   -6   IYMIN=   -6   IZMIN=  -52

 parallel 3D FFT for wavefunctions:
    minimum data exchange during FFTs selected (reduces bandwidth)
 parallel 3D FFT for charge:
    minimum data exchange during FFTs selected (reduces bandwidth)

 initial charge density was supplied:
 number of electron      46.0000024 magnetization       1.4089072
 keeping initial charge density in first step

 Maximum index for augmentation-charges         1203 (set IRDMAX)

 First call to EWALD:  gamma=   0.279
 Maximum number of real-space cells 6x 6x 1
 Maximum number of reciprocal cells 2x 2x11

--------------------------------------- Iteration      1(   1)  ---------------------------------------

atom =   1  type =  1  l = 2

 onsite density matrix

spin component  1

  0.3347 -0.0000 -0.0000  0.0241  0.0000
 -0.0000  0.4188  0.0000  0.0000  0.0241
 -0.0000  0.0000  0.3665 -0.0000  0.0000
  0.0241  0.0000 -0.0000  0.4188  0.0000
  0.0000  0.0241  0.0000  0.0000  0.3347

[...]

 occupancies and eigenvectors

  o =  0.1350  v =  0.0000  0.0000  0.0000  0.0000  0.0000 -0.0000  0.0000 -1.0000 -0.0000  0.0000      0.0000  0.0000  0.0000  0.0000  0.0000  0.0000  0.0000  0.0000  0.0000  0.0000
  o =  0.1643  v =  0.0000  0.0000  0.0000  0.0000  0.0000 -0.6416  0.3256  0.0000 -0.3473  0.6015      0.0000  0.0000  0.0000  0.0000  0.0000  0.0000  0.0000  0.0000  0.0000  0.0000
  o =  0.1643  v =  0.0000  0.0000  0.0000  0.0000  0.0000 -0.6015 -0.3473  0.0000 -0.3256 -0.6416      0.0000  0.0000  0.0000  0.0000  0.0000  0.0000  0.0000  0.0000  0.0000  0.0000
  o =  0.3283  v =  0.7049  0.1758  0.0000 -0.1875 -0.6611  0.0000  0.0000  0.0000  0.0000  0.0000      0.0000  0.0000  0.0000  0.0000  0.0000  0.0000  0.0000  0.0000  0.0000  0.0000
  o =  0.3283  v = -0.6611  0.1875 -0.0000  0.1758 -0.7049  0.0000  0.0000  0.0000  0.0000  0.0000      0.0000  0.0000  0.0000  0.0000  0.0000  0.0000  0.0000  0.0000  0.0000  0.0000
  o =  0.3306  v =  0.0000  0.0000  0.0000  0.0000  0.0000 -0.3472 -0.6015  0.0000  0.6415  0.3256      0.0000  0.0000  0.0000  0.0000  0.0000  0.0000  0.0000  0.0000  0.0000  0.0000
  o =  0.3306  v =  0.0000  0.0000  0.0000  0.0000  0.0000  0.3256 -0.6415 -0.0000 -0.6015  0.3472      0.0000  0.0000  0.0000  0.0000  0.0000  0.0000  0.0000  0.0000  0.0000  0.0000
  o =  0.3665  v =  0.0000  0.0000 -1.0000 -0.0000 -0.0000  0.0000  0.0000  0.0000  0.0000  0.0000      0.0000  0.0000  0.0000  0.0000  0.0000  0.0000  0.0000  0.0000  0.0000  0.0000
  o =  0.4252  v = -0.1875  0.6610  0.0000 -0.7049  0.1758  0.0000  0.0000  0.0000  0.0000  0.0000      0.0000  0.0000  0.0000  0.0000  0.0000  0.0000  0.0000  0.0000  0.0000  0.0000
  o =  0.4252  v =  0.1758  0.7049 -0.0000  0.6610  0.1875  0.0000  0.0000  0.0000  0.0000  0.0000      0.0000  0.0000  0.0000  0.0000  0.0000  0.0000  0.0000  0.0000  0.0000  0.0000
atom =   2  type =  1  l = 2

 onsite density matrix

[...]

  0.2020  0.0000 -0.0000 -0.0696  0.0000
  0.0000  0.2929 -0.0000  0.0000 -0.0696
 -0.0000 -0.0000  0.1350  0.0000  0.0000
 -0.0696  0.0000  0.0000  0.2929 -0.0000
  0.0000 -0.0696  0.0000 -0.0000  0.2020

 occupancies and eigenvectors

  o =  0.1350  v =  0.0000  0.0000  0.0000  0.0000  0.0000 -0.0000  0.0000 -1.0000 -0.0000  0.0000      0.0000  0.0000  0.0000  0.0000  0.0000  0.0000  0.0000  0.0000  0.0000  0.0000
  o =  0.1643  v =  0.0000  0.0000  0.0000  0.0000  0.0000 -0.6414  0.3257  0.0000 -0.3472  0.6016      0.0000  0.0000  0.0000  0.0000  0.0000  0.0000  0.0000  0.0000  0.0000  0.0000
  o =  0.1643  v =  0.0000  0.0000  0.0000  0.0000  0.0000 -0.6016 -0.3472  0.0000 -0.3257 -0.6414      0.0000  0.0000  0.0000  0.0000  0.0000  0.0000  0.0000  0.0000  0.0000  0.0000
  o =  0.3283  v =  0.7048  0.1759  0.0000 -0.1875 -0.6612  0.0000  0.0000  0.0000  0.0000  0.0000      0.0000  0.0000  0.0000  0.0000  0.0000  0.0000  0.0000  0.0000  0.0000  0.0000
  o =  0.3283  v = -0.6612  0.1875 -0.0000  0.1759 -0.7048  0.0000  0.0000  0.0000  0.0000  0.0000      0.0000  0.0000  0.0000  0.0000  0.0000  0.0000  0.0000  0.0000  0.0000  0.0000
  o =  0.3306  v =  0.0000  0.0000  0.0000  0.0000  0.0000 -0.3472 -0.6016  0.0000  0.6415  0.3256      0.0000  0.0000  0.0000  0.0000  0.0000  0.0000  0.0000  0.0000  0.0000  0.0000
  o =  0.3306  v =  0.0000  0.0000  0.0000  0.0000  0.0000  0.3256 -0.6415 -0.0000 -0.6016  0.3472      0.0000  0.0000  0.0000  0.0000  0.0000  0.0000  0.0000  0.0000  0.0000  0.0000
  o =  0.3665  v =  0.0000  0.0000 -1.0000 -0.0000 -0.0000  0.0000  0.0000  0.0000  0.0000  0.0000      0.0000  0.0000  0.0000  0.0000  0.0000  0.0000  0.0000  0.0000  0.0000  0.0000
  o =  0.4252  v = -0.1875  0.6611  0.0000 -0.7049  0.1758  0.0000  0.0000  0.0000  0.0000  0.0000      0.0000  0.0000  0.0000  0.0000  0.0000  0.0000  0.0000  0.0000  0.0000  0.0000
  o =  0.4252  v =  0.1758  0.7049 -0.0000  0.6611  0.1875  0.0000  0.0000  0.0000  0.0000  0.0000      0.0000  0.0000  0.0000  0.0000  0.0000  0.0000  0.0000  0.0000  0.0000  0.0000
 BZINTS: Fermi energy: 10.350243; 46.000000 electrons
         Band energy:-293.257095;  BLOECHL correction: -0.071439

 eigenvalue-minimisations  : 18680
 total energy-change (2. order) : 0.3671551E+03  (-0.2184621E+04)
 number of electron      46.0000024 magnetization       1.4089072
 augmentation part       46.0000024 magnetization       1.4089072

 DIPCOR: dipole corrections for dipol
 direction  3 min pos   274,
 dipolmoment           0.000000      0.000000      0.000046 electrons x Angstroem
 Tr[quadrupol]       -49.493235

 energy correction for charged system         0.000000 eV
 dipol+quadrupol energy correction           -0.000000 eV
 added-field ion interaction         -0.001009 eV  (added to PSCEN)

 Free energy of the ion-electron system (eV)
  alpha Z        PSCENC =        63.26920357
  Ewald energy   TEWEN  =     17390.22404797
  -Hartree energ DENC   =    -20701.50774054
  -exchange      EXHF   =         0.00000000
  -V(xc)+E(xc)   XCENC  =       104.50218548
  PAW double counting   =      5037.12284684    -4983.71202439
  entropy T*S    EENTRO =         0.00000000
  eigenvalues    EBANDS =      -293.25709480
  atomic energy  EATOM  =      3750.51368352
  Solvation  Ediel_sol  =         0.00000000
  free energy    TOTEN  =       367.15510765 eV

  energy without entropy =      367.15510765  energy(sigma->0) =      367.15510765

[...]

 BZINTS: Fermi energy:  0.035065; 46.000000 electrons
         Band energy:-658.099693;  BLOECHL correction: -0.043242

 eigenvalue-minimisations  : 17376
 total energy-change (2. order) :-0.3648426E+03  (-0.3480780E+03)
 number of electron      46.0000024 magnetization       1.4089072
 augmentation part       46.0000024 magnetization       1.4089072

[...]

--------------------------------------- Iteration      1(  10)  ---------------------------------------

[...]

 eigenvalue-minimisations  : 14712
 total energy-change (2. order) :-0.9720679E-08  (-0.9856551E-08)
 number of electron      46.0000024 magnetization       1.4089072
 augmentation part       46.0000024 magnetization       1.4089072

 DIPCOR: dipole corrections for dipol
 direction  3 min pos   274,
 dipolmoment           0.000000      0.000000      0.000046 electrons x Angstroem
 Tr[quadrupol]       -49.493235

 energy correction for charged system         0.000000 eV
 dipol+quadrupol energy correction           -0.000000 eV
 added-field ion interaction         -0.001009 eV  (added to PSCEN)

 Free energy of the ion-electron system (eV)
  alpha Z        PSCENC =        63.26920357
  Ewald energy   TEWEN  =     17390.22404797
  -Hartree energ DENC   =    -20701.50774054
  -exchange      EXHF   =         0.00000000
  -V(xc)+E(xc)   XCENC  =       104.50218548
  PAW double counting   =      5037.12284684    -4983.71202439
  entropy T*S    EENTRO =         0.00000000
  eigenvalues    EBANDS =      -697.90720247
  atomic energy  EATOM  =      3750.51368352
  Solvation  Ediel_sol  =         0.00000000
  free energy    TOTEN  =       -37.49500001 eV

  energy without entropy =      -37.49500001  energy(sigma->0) =      -37.49500001

 average (electrostatic) potential at core
  the test charge radii are     0.9339  0.9698
  (the norm of the test charge is              1.0000)
       1 -54.7594       2 -54.7591       3 -92.6663       4 -92.7039       5 -92.7038
       6 -92.6657

 E-fermi :  -1.0291     XC(G=0):  -4.6759     alpha+bet : -4.7722

[...]

 k-point     1 :       0.0000    0.0000    0.0000
  band No.  band energies     occupation
      1     -40.2328      1.00000
      2     -40.2328      1.00000
      3     -40.2325      1.00000
      4     -40.2325      1.00000
      5     -40.1825      1.00000
      6     -40.1821      1.00000
      7     -15.5527      1.00000
      8     -15.4324      1.00000
      9     -14.3455      1.00000
     10     -14.1621      1.00000
     11      -6.9079      1.00000
     12      -6.3446      1.00000
     13      -3.9653      1.00000
     14      -3.9653      1.00000
     15      -3.9583      1.00000
     16      -3.9582      1.00000
     17      -3.6372      1.00000
     18      -2.6505      1.00000
     19      -1.6521      1.00000
     20      -1.6521      1.00000
     21      -1.6496      1.00000
     22      -1.6496      1.00000
     23      -1.3635      1.00000
     24      -0.9458      0.00000
     25      -0.6396      0.00000
     26      -0.6396      0.00000
     27      -0.5948      0.00000
     28      -0.5948      0.00000
     29       2.1473      0.00000
     30       2.1473      0.00000
     31       2.2209      0.00000
     32       2.2209      0.00000

[...]

 spin component 2

[...]

 k-point   120 :       0.3429    0.3143    0.0000
  band No.  band energies     occupation
      1     -39.5926      1.00000
      2     -39.5922      1.00000
      3     -39.5841      1.00000
      4     -39.5837      1.00000
      5     -39.3388      1.00000
      6     -39.3384      1.00000
      7     -13.2450      1.00000
      8     -13.2334      1.00000
      9     -13.2001      1.00000
     10     -13.1995      1.00000
     11      -5.9914      1.00000
     12      -5.9845      1.00000
     13      -5.9104      1.00000
     14      -5.8461      1.00000
     15      -5.7088      1.00000
     16      -5.6289      1.00000
     17      -4.5566      1.00000
     18      -4.3680      1.00000
     19      -4.0057      1.00000
     20      -4.0013      1.00000
     21      -3.8930      1.00000
     22      -3.8648      1.00000
     23       0.2462      0.00000
     24       0.3464      0.00000
     25       0.3540      0.00000
     26       0.4219      0.00000
     27       0.4912      0.00000
     28       0.5015      0.00000
     29       1.6264      0.00000
     30       1.7947      0.00000
     31       1.9021      0.00000
     32       2.0894      0.00000

 soft charge-density along one line, spin component           1
         0         1         2         3         4         5         6         7         8         9
 total charge-density along one line

 soft charge-density along one line, spin component           2
         0         1         2         3         4         5         6         7         8         9
 total charge-density along one line

------------------------ aborting loop because EDIFF is reached ----------------------------------------

 total charge

# of ion       s       p       d       tot
    1        0.278   6.277   2.970   9.525
    2        0.278   6.277   2.970   9.525
    3        1.366   2.338   0.000   3.704
    4        1.367   2.336   0.000   3.704
    5        1.367   2.336   0.000   3.704
    6        1.366   2.338   0.000   3.704
tot          6.024  21.904   5.939  33.867

 magnetization (x)

[...]

  DFT-D2 method for vdW energy calculation

  Parameters of vdW forcefield:
         C6(Jnm^6/mol)     R0(A)
   V       10.800          1.562
   S        5.570          1.683

  IVDW =   1
  VDW_RADIUS =    50.000 A
  VDW_S6 =     0.750
  VDW_SR =     1.000
  VDW_D =    20.000
  LVDW_EWALD = F

  Number of pair interactions contributing to vdW energy:   43293
  Edisp (eV):   -1.08456

  FORCE on cell =-STRESS in cart. coord.  units (eV):
  Direction    XX          YY          ZZ          XY          YZ          ZX
  Alpha Z    63.27021    63.27021    63.27021
  Ewald   19475.18034 19475.18037-21560.13832    -0.00002     0.00001     0.00002
  Hartree 20246.64409 20246.64408-19791.72340     0.00000    -0.00000    -0.00000
  E(xc)    -204.63830  -204.63830  -205.27193     0.00000     0.00000    -0.00000
  Local  -40343.31826-40343.31836 40713.42753    -0.00005    -0.00001    -0.00001
  n-local   148.34071   148.10668   154.71327    -0.79723    -0.51806    -1.69371
  augment     0.89827     0.89835     2.08601     0.00007     0.00001    -0.00002
  Kinetic   610.01649   620.13999   624.23622    -7.04554     4.24291    10.33378
  Fock        0.00000     0.00000     0.00000     0.00000     0.00000     0.00000
  vdW        -0.30391    -0.30391    -0.56154     0.00000    -0.00000    -0.00000
  Total       1.03438     1.03438     0.03806     0.00000    -0.00000     0.00000
  in kB       6.49355     6.49355     0.23893     0.00000    -0.00000     0.00000

 VOLUME and BASIS-vectors are now :
  energy-cutoff  :      500.00
  volume of cell :      255.22
      direct lattice vectors                 reciprocal lattice vectors
     3.188283682  0.000000000  0.000000000     0.313648376  0.181084974  0.000000000
    -1.594141841  2.761134663  0.000000000     0.000000000  0.362169949  0.000000000
     0.000000000  0.000000000 28.990970612     0.000000000  0.000000000  0.034493498

  length of vectors
     3.188283682  3.188283682 28.990970612     0.362169949  0.362169949  0.034493498

 FORCES acting on ions
    electron-ion (+dipol)            ewald-force                    non-local-force                 convergence-correction
   0.839E-06 -.142E-05 0.151E+04   0.616E-05 -.107E-04 -.151E+04   0.108E-18 0.325E-18 0.133E+00   -.385E-05 0.678E-05 -.129E-01
   0.824E-06 -.148E-05 -.151E+04   0.616E-05 -.107E-04 0.151E+04   -.217E-18 -.325E-18 -.133E+00   -.405E-05 0.690E-05 0.162E-01
   -.487E-04 0.282E-04 0.152E+04   -.642E-05 0.353E-05 -.152E+04   0.104E-16 0.000E+00 0.298E+01   -.109E-03 0.629E-04 -.393E-02
   0.731E-06 0.546E-04 0.130E+03   0.359E-06 0.720E-05 -.128E+03   0.520E-17 0.173E-16 -.284E+01   0.117E-03 -.754E-04 -.240E-02
   -.485E-04 0.281E-04 -.130E+03   -.652E-05 0.348E-05 0.128E+03   -.520E-17 -.694E-17 0.284E+01   -.110E-03 0.639E-04 0.284E-02
   0.721E-06 0.548E-04 -.152E+04   0.258E-06 0.713E-05 0.152E+04   -.520E-17 -.347E-17 -.298E+01   0.115E-03 -.745E-04 0.442E-02
   -.941E-04 0.163E-03 0.796E-03   -.396E-13 -.179E-15 0.227E-12   0.510E-17 0.694E-17 -.888E-15   0.542E-05 -.939E-05 0.429E-02

 POSITION                                       TOTAL-FORCE (eV/Angst)
      0.00000      0.00000      1.46744         0.000000      0.000000      0.081673
      0.00000      0.00000      7.52354         0.000000     -0.000000     -0.081673
      1.59414      0.92038      0.00000        -0.000000      0.000000     -0.076692
     -0.00000      1.84076      2.93487         0.000000     -0.000000      0.026730
      1.59414      0.92038      6.05610        -0.000000      0.000000     -0.026730
     -0.00000      1.84076      8.99097         0.000000      0.000000      0.076692
    total drift:                               -0.000089      0.000154      0.005082

  FREE ENERGIE OF THE ION-ELECTRON SYSTEM (eV)
  free  energy   TOTEN  =       -38.57956100 eV

  energy  without entropy=      -38.57956100  energy(sigma->0) =      -38.57956100

 total charge

[...]

 magnetization (x)

# of ion       s       p       d       tot
    1        0.009   0.006   0.744   0.759
    2        0.009   0.006   0.744   0.759
    3       -0.002  -0.058   0.000  -0.060
    4       -0.001  -0.057   0.000  -0.058
    5       -0.001  -0.057   0.000  -0.058
    6       -0.002  -0.058   0.000  -0.060
tot          0.012  -0.219   1.488   1.280

 BZINTS: Fermi energy: -1.029124; 46.000000 electrons
         Band energy:-697.907202;  BLOECHL correction: -0.003785